p td 1000 2361 
601 6
601 15
601 40
601 41
601 46
601 47
601 60
601 67
601 73
601 75
601 79
601 83
601 91
601 95
601 104
601 106
601 110
601 117
601 118
601 128
601 132
601 135
601 141
601 144
601 147
601 155
601 156
601 160
601 166
601 170
601 172
601 173
601 182
601 187
601 188
601 195
601 201
601 203
601 204
601 212
601 219
601 232
601 234
601 239
601 245
601 248
601 252
601 254
601 256
601 263
601 269
601 300
601 312
601 314
601 318
601 319
601 324
601 325
601 327
601 336
601 345
601 349
601 350
601 353
601 367
601 369
601 375
601 376
601 382
601 398
601 418
601 423
601 426
601 434
601 439
601 441
601 449
601 451
601 458
601 459
601 467
601 468
601 473
601 477
601 485
601 503
601 510
601 511
601 513
601 520
601 522
601 523
601 530
601 541
601 556
601 560
601 562
601 571
601 575
601 578
601 579
601 588
601 591
601 594
601 595
601 601
601 602
601 609
601 613
601 621
601 622
601 624
601 626
601 641
601 645
601 656
601 659
601 664
601 666
601 670
601 672
601 674
601 676
601 677
601 683
601 684
601 690
601 700
601 725
601 732
601 736
601 739
601 743
601 758
601 765
601 771
601 777
601 781
601 783
601 784
601 790
601 796
601 797
601 800
601 801
601 804
601 806
601 807
601 815
601 817
601 820
601 827
601 846
601 861
601 862
601 864
601 874
601 875
601 879
601 880
601 886
601 892
601 898
601 905
601 906
601 907
601 910
601 912
601 913
601 917
601 918
601 921
601 926
601 930
601 931
601 935
601 937
601 939
601 943
601 958
601 964
601 993
192 15
192 25
192 34
192 35
192 48
192 61
192 66
192 69
192 81
192 82
192 84
192 99
192 103
192 113
192 124
192 126
192 129
192 130
192 133
192 135
192 138
192 148
192 149
192 153
192 154
192 158
192 166
192 168
192 177
192 183
192 200
192 203
192 210
192 211
192 219
192 222
192 223
192 229
192 232
192 235
192 241
192 249
192 252
192 263
192 273
192 281
192 286
192 289
192 291
192 294
192 300
192 302
192 304
192 305
192 310
192 311
192 313
192 321
192 322
192 333
192 349
192 351
192 359
192 361
192 363
192 364
192 368
192 371
192 376
192 384
192 388
192 389
192 391
192 400
192 401
192 403
192 411
192 418
192 421
192 438
192 454
192 459
192 461
192 463
192 468
192 473
192 476
192 481
192 497
192 501
192 502
192 504
192 517
192 523
192 527
192 531
192 532
192 536
192 537
192 548
192 554
192 556
192 558
192 561
192 563
192 564
192 565
192 570
192 572
192 575
192 580
192 587
192 588
192 589
192 593
192 604
192 608
192 627
192 630
192 632
192 634
192 639
192 641
192 646
192 655
192 656
192 672
192 673
192 675
192 679
192 680
192 691
192 699
192 705
192 707
192 712
192 713
192 714
192 717
192 726
192 732
192 747
192 749
192 750
192 756
192 761
192 762
192 771
192 776
192 782
192 784
192 785
192 786
192 794
192 801
192 803
192 806
192 811
192 812
192 832
192 835
192 848
192 853
192 854
192 859
192 864
192 870
192 874
192 886
192 893
192 904
192 906
192 917
192 920
192 925
192 927
192 928
192 930
192 932
192 938
192 946
192 947
192 951
192 953
192 955
192 961
192 966
192 967
192 968
192 970
192 971
192 976
192 977
192 980
192 981
192 988
192 990
363 3
363 4
363 5
363 17
363 18
363 26
363 29
363 38
363 40
363 43
363 56
363 64
363 70
363 77
363 80
363 85
363 100
363 101
363 104
363 111
363 114
363 115
363 129
363 133
363 138
363 141
363 150
363 151
363 157
363 163
363 169
363 171
363 172
363 175
363 185
363 190
363 198
363 204
363 208
363 211
363 212
363 213
363 218
363 220
363 221
363 223
363 232
363 233
363 235
363 239
363 242
363 247
363 252
363 255
363 260
363 262
363 263
363 266
363 269
363 272
363 287
363 289
363 292
363 293
363 298
363 318
363 327
363 334
363 343
363 347
363 348
363 351
363 357
363 359
363 362
363 367
363 368
363 370
363 376
363 381
363 383
363 390
363 391
363 398
363 404
363 406
363 414
363 418
363 421
363 423
363 436
363 441
363 446
363 449
363 466
363 470
363 473
363 474
363 479
363 480
363 483
363 495
363 497
363 498
363 510
363 517
363 518
363 524
363 532
363 542
363 550
363 562
363 564
363 571
363 584
363 585
363 589
363 591
363 603
363 606
363 610
363 612
363 614
363 618
363 624
363 625
363 630
363 634
363 638
363 640
363 641
363 645
363 646
363 650
363 661
363 663
363 671
363 676
363 683
363 684
363 685
363 687
363 690
363 698
363 702
363 703
363 711
363 717
363 719
363 725
363 726
363 731
363 735
363 742
363 743
363 747
363 748
363 774
363 775
363 777
363 778
363 789
363 791
363 795
363 796
363 799
363 801
363 808
363 813
363 822
363 825
363 829
363 830
363 854
363 867
363 869
363 874
363 876
363 879
363 880
363 882
363 883
363 892
363 913
363 924
363 928
363 950
363 951
363 954
363 961
363 974
363 977
363 991
345 19
345 21
345 29
345 30
345 35
345 40
345 45
345 49
345 52
345 57
345 60
345 71
345 76
345 87
345 91
345 96
345 102
345 108
345 109
345 111
345 112
345 116
345 117
345 126
345 134
345 136
345 139
345 147
345 149
345 162
345 165
345 167
345 175
345 179
345 184
345 190
345 192
345 196
345 207
345 216
345 221
345 223
345 225
345 226
345 227
345 242
345 245
345 247
345 262
345 269
345 275
345 279
345 281
345 284
345 291
345 294
345 299
345 303
345 305
345 306
345 307
345 313
345 317
345 318
345 328
345 329
345 330
345 341
345 353
345 355
345 357
345 369
345 374
345 388
345 390
345 395
345 414
345 420
345 428
345 434
345 435
345 436
345 442
345 450
345 460
345 462
345 479
345 498
345 501
345 503
345 510
345 511
345 513
345 529
345 530
345 532
345 537
345 548
345 551
345 566
345 569
345 571
345 580
345 586
345 588
345 592
345 598
345 620
345 634
345 637
345 638
345 640
345 642
345 649
345 650
345 655
345 657
345 658
345 661
345 672
345 674
345 677
345 688
345 691
345 700
345 713
345 717
345 727
345 733
345 736
345 737
345 747
345 748
345 749
345 751
345 753
345 758
345 760
345 763
345 771
345 779
345 781
345 787
345 791
345 799
345 804
345 810
345 813
345 817
345 818
345 821
345 827
345 833
345 834
345 846
345 854
345 858
345 860
345 861
345 864
345 873
345 878
345 879
345 902
345 916
345 927
345 946
345 952
345 960
345 977
345 981
345 991
9 7
9 10
9 12
9 23
9 33
9 36
9 51
9 53
9 57
9 58
9 62
9 64
9 73
9 79
9 83
9 84
9 85
9 88
9 89
9 96
9 103
9 108
9 113
9 114
9 117
9 122
9 125
9 128
9 131
9 142
9 143
9 150
9 152
9 161
9 171
9 172
9 178
9 181
9 182
9 183
9 184
9 187
9 190
9 191
9 201
9 202
9 210
9 221
9 234
9 236
9 239
9 244
9 245
9 246
9 250
9 254
9 256
9 257
9 258
9 262
9 266
9 279
9 287
9 292
9 298
9 299
9 300
9 313
9 315
9 318
9 322
9 324
9 328
9 331
9 335
9 365
9 368
9 380
9 383
9 388
9 395
9 396
9 406
9 407
9 411
9 412
9 414
9 416
9 418
9 433
9 439
9 455
9 456
9 459
9 467
9 478
9 479
9 484
9 494
9 503
9 504
9 507
9 513
9 515
9 516
9 517
9 530
9 538
9 546
9 550
9 552
9 558
9 560
9 567
9 592
9 596
9 611
9 618
9 622
9 624
9 625
9 626
9 630
9 633
9 634
9 639
9 640
9 648
9 652
9 657
9 665
9 668
9 670
9 678
9 679
9 685
9 691
9 705
9 707
9 708
9 711
9 718
9 725
9 727
9 733
9 734
9 737
9 744
9 746
9 754
9 755
9 761
9 762
9 764
9 766
9 772
9 789
9 790
9 796
9 797
9 807
9 811
9 814
9 818
9 819
9 825
9 828
9 835
9 841
9 846
9 848
9 851
9 864
9 870
9 878
9 887
9 889
9 896
9 897
9 910
9 917
9 921
9 926
9 928
9 931
9 948
9 953
9 954
9 955
9 967
9 972
9 974
9 980
9 991
9 994
9 995
9 996
647 7
647 12
647 17
647 18
647 21
647 28
647 34
647 38
647 41
647 45
647 50
647 55
647 59
647 62
647 63
647 64
647 67
647 79
647 84
647 86
647 89
647 90
647 94
647 95
647 96
647 97
647 106
647 109
647 113
647 115
647 117
647 118
647 119
647 120
647 122
647 137
647 141
647 145
647 146
647 152
647 154
647 155
647 156
647 159
647 163
647 171
647 175
647 176
647 180
647 182
647 190
647 196
647 197
647 204
647 205
647 211
647 215
647 220
647 222
647 223
647 227
647 239
647 246
647 255
647 259
647 264
647 265
647 267
647 271
647 273
647 291
647 298
647 305
647 311
647 312
647 319
647 320
647 323
647 341
647 343
647 350
647 356
647 368
647 369
647 370
647 373
647 376
647 381
647 386
647 390
647 398
647 401
647 409
647 410
647 411
647 415
647 419
647 424
647 430
647 434
647 437
647 443
647 446
647 448
647 451
647 459
647 463
647 471
647 477
647 481
647 486
647 488
647 492
647 494
647 497
647 498
647 509
647 514
647 515
647 520
647 522
647 528
647 532
647 540
647 542
647 547
647 552
647 555
647 562
647 564
647 570
647 572
647 573
647 578
647 581
647 584
647 586
647 592
647 593
647 594
647 599
647 601
647 608
647 612
647 613
647 621
647 623
647 624
647 626
647 633
647 638
647 639
647 640
647 641
647 645
647 649
647 652
647 654
647 660
647 675
647 682
647 683
647 690
647 691
647 701
647 706
647 709
647 710
647 712
647 715
647 717
647 718
647 721
647 725
647 728
647 737
647 740
647 746
647 751
647 758
647 759
647 760
647 765
647 767
647 772
647 775
647 783
647 784
647 789
647 792
647 806
647 813
647 818
647 822
647 824
647 825
647 828
647 829
647 833
647 834
647 836
647 837
647 845
647 846
647 853
647 854
647 864
647 869
647 877
647 880
647 887
647 890
647 897
647 906
647 910
647 911
647 915
647 926
647 928
647 929
647 931
647 944
647 954
647 978
647 979
647 984
647 990
647 995
811 8
811 11
811 17
811 18
811 28
811 34
811 35
811 36
811 39
811 45
811 53
811 56
811 63
811 64
811 72
811 73
811 80
811 84
811 88
811 96
811 100
811 110
811 117
811 122
811 127
811 135
811 136
811 144
811 147
811 164
811 170
811 171
811 172
811 177
811 179
811 181
811 194
811 196
811 198
811 208
811 211
811 224
811 227
811 244
811 249
811 261
811 265
811 272
811 273
811 279
811 280
811 293
811 303
811 321
811 323
811 328
811 332
811 333
811 336
811 337
811 342
811 347
811 348
811 359
811 367
811 376
811 380
811 382
811 389
811 392
811 393
811 397
811 399
811 402
811 427
811 431
811 432
811 441
811 445
811 452
811 454
811 457
811 459
811 460
811 462
811 463
811 465
811 472
811 482
811 485
811 489
811 490
811 495
811 502
811 506
811 517
811 519
811 521
811 524
811 525
811 530
811 543
811 550
811 554
811 557
811 560
811 576
811 578
811 590
811 607
811 614
811 616
811 619
811 620
811 625
811 627
811 628
811 631
811 635
811 638
811 640
811 647
811 658
811 663
811 664
811 672
811 674
811 679
811 696
811 700
811 701
811 705
811 706
811 715
811 718
811 735
811 737
811 738
811 739
811 747
811 748
811 751
811 752
811 755
811 756
811 760
811 761
811 767
811 768
811 773
811 774
811 778
811 781
811 788
811 792
811 799
811 802
811 806
811 814
811 820
811 832
811 835
811 839
811 841
811 848
811 852
811 859
811 867
811 877
811 878
811 884
811 888
811 889
811 893
811 895
811 896
811 900
811 902
811 903
811 924
811 931
811 936
811 938
811 951
811 953
811 955
811 960
811 969
811 976
811 984
811 985
811 991
659 8
659 9
659 10
659 20
659 37
659 41
659 42
659 60
659 66
659 67
659 69
659 71
659 75
659 77
659 83
659 97
659 103
659 106
659 115
659 119
659 125
659 128
659 130
659 133
659 138
659 140
659 146
659 151
659 152
659 157
659 169
659 171
659 172
659 179
659 180
659 184
659 187
659 188
659 193
659 198
659 200
659 207
659 208
659 209
659 220
659 223
659 224
659 225
659 229
659 231
659 243
659 244
659 245
659 249
659 250
659 257
659 258
659 263
659 267
659 268
659 275
659 283
659 298
659 301
659 316
659 318
659 320
659 321
659 322
659 323
659 329
659 345
659 346
659 347
659 350
659 352
659 353
659 356
659 358
659 372
659 376
659 377
659 385
659 390
659 397
659 401
659 415
659 419
659 420
659 421
659 423
659 424
659 434
659 438
659 446
659 449
659 454
659 459
659 461
659 466
659 468
659 473
659 475
659 482
659 483
659 496
659 506
659 513
659 519
659 520
659 524
659 528
659 533
659 544
659 555
659 556
659 566
659 581
659 586
659 597
659 600
659 607
659 625
659 627
659 632
659 634
659 639
659 654
659 663
659 668
659 672
659 678
659 687
659 691
659 698
659 701
659 702
659 704
659 710
659 712
659 728
659 734
659 743
659 749
659 754
659 761
659 763
659 767
659 768
659 771
659 775
659 779
659 783
659 786
659 788
659 790
659 794
659 803
659 807
659 816
659 818
659 819
659 827
659 834
659 847
659 854
659 861
659 863
659 868
659 869
659 875
659 876
659 880
659 887
659 888
659 908
659 909
659 921
659 922
659 923
659 925
659 927
659 931
659 937
659 945
659 947
659 948
659 949
659 955
659 959
659 963
659 968
659 969
659 971
659 975
659 976
659 977
659 979
659 991
659 1000
966 31
966 35
966 43
966 46
966 49
966 54
966 55
966 59
966 71
966 83
966 89
966 121
966 141
966 142
966 148
966 150
966 162
966 166
966 179
966 186
966 189
966 191
966 196
966 201
966 202
966 209
966 217
966 218
966 221
966 239
966 241
966 242
966 261
966 269
966 270
966 273
966 274
966 278
966 283
966 288
966 293
966 297
966 307
966 309
966 319
966 324
966 339
966 342
966 344
966 348
966 350
966 356
966 360
966 364
966 371
966 372
966 376
966 383
966 385
966 394
966 417
966 421
966 426
966 431
966 435
966 443
966 455
966 459
966 462
966 468
966 471
966 479
966 480
966 485
966 486
966 488
966 490
966 506
966 508
966 526
966 532
966 535
966 536
966 537
966 541
966 551
966 552
966 554
966 556
966 562
966 570
966 572
966 576
966 583
966 589
966 590
966 591
966 593
966 604
966 612
966 613
966 619
966 624
966 628
966 630
966 632
966 641
966 644
966 645
966 648
966 651
966 657
966 660
966 661
966 663
966 671
966 676
966 682
966 688
966 689
966 690
966 692
966 699
966 701
966 706
966 714
966 716
966 719
966 723
966 726
966 728
966 729
966 738
966 742
966 748
966 761
966 770
966 772
966 777
966 783
966 792
966 796
966 800
966 806
966 809
966 810
966 822
966 823
966 828
966 829
966 831
966 834
966 836
966 850
966 852
966 865
966 872
966 885
966 887
966 891
966 897
966 898
966 905
966 907
966 924
966 928
966 931
966 932
966 940
966 955
966 961
966 962
966 977
966 978
966 981
966 991
966 995
966 998
287 12
287 19
287 22
287 24
287 35
287 36
287 39
287 42
287 48
287 50
287 52
287 56
287 59
287 66
287 67
287 68
287 86
287 89
287 92
287 96
287 97
287 106
287 109
287 110
287 115
287 117
287 118
287 122
287 125
287 126
287 129
287 130
287 135
287 137
287 141
287 142
287 149
287 154
287 158
287 160
287 162
287 164
287 173
287 186
287 190
287 196
287 198
287 209
287 218
287 222
287 223
287 225
287 228
287 233
287 234
287 254
287 255
287 258
287 259
287 264
287 267
287 271
287 275
287 276
287 280
287 286
287 296
287 301
287 311
287 319
287 321
287 323
287 327
287 330
287 338
287 339
287 341
287 342
287 350
287 351
287 353
287 354
287 357
287 360
287 361
287 371
287 377
287 397
287 400
287 401
287 416
287 418
287 421
287 422
287 426
287 428
287 429
287 430
287 433
287 436
287 438
287 439
287 451
287 452
287 453
287 454
287 455
287 465
287 468
287 472
287 473
287 474
287 480
287 483
287 487
287 495
287 496
287 497
287 504
287 525
287 534
287 535
287 540
287 544
287 550
287 551
287 553
287 556
287 562
287 574
287 584
287 587
287 599
287 602
287 603
287 608
287 613
287 615
287 616
287 625
287 627
287 634
287 661
287 667
287 669
287 672
287 690
287 691
287 695
287 698
287 699
287 706
287 707
287 714
287 715
287 718
287 733
287 739
287 743
287 744
287 746
287 749
287 754
287 758
287 759
287 767
287 770
287 775
287 781
287 784
287 785
287 786
287 792
287 800
287 810
287 813
287 817
287 819
287 829
287 830
287 840
287 843
287 847
287 848
287 853
287 855
287 865
287 871
287 876
287 877
287 885
287 888
287 895
287 904
287 906
287 907
287 909
287 916
287 917
287 920
287 926
287 932
287 941
287 943
287 944
287 948
287 953
287 963
287 965
287 971
287 986
287 996
287 997
287 998
899 11
899 15
899 19
899 31
899 32
899 40
899 46
899 51
899 60
899 62
899 75
899 80
899 84
899 85
899 96
899 116
899 125
899 134
899 140
899 147
899 151
899 152
899 154
899 174
899 194
899 196
899 201
899 202
899 211
899 213
899 216
899 231
899 241
899 247
899 256
899 261
899 264
899 271
899 274
899 278
899 280
899 281
899 284
899 285
899 286
899 293
899 296
899 300
899 301
899 305
899 311
899 319
899 321
899 322
899 327
899 331
899 333
899 338
899 339
899 340
899 348
899 354
899 367
899 374
899 396
899 405
899 420
899 424
899 447
899 448
899 453
899 456
899 466
899 469
899 474
899 479
899 483
899 488
899 502
899 505
899 506
899 513
899 514
899 516
899 517
899 524
899 532
899 534
899 538
899 543
899 545
899 553
899 556
899 558
899 559
899 560
899 561
899 562
899 574
899 579
899 586
899 589
899 590
899 592
899 599
899 601
899 610
899 617
899 625
899 627
899 647
899 656
899 657
899 663
899 669
899 675
899 677
899 679
899 682
899 683
899 684
899 688
899 691
899 698
899 705
899 717
899 718
899 719
899 723
899 741
899 744
899 747
899 757
899 758
899 759
899 763
899 765
899 767
899 772
899 773
899 778
899 782
899 783
899 787
899 788
899 789
899 790
899 792
899 794
899 809
899 810
899 811
899 813
899 814
899 822
899 824
899 825
899 828
899 832
899 837
899 839
899 840
899 847
899 848
899 850
899 854
899 855
899 859
899 863
899 870
899 871
899 878
899 880
899 886
899 887
899 888
899 892
899 896
899 898
899 913
899 917
899 925
899 938
899 940
899 943
899 947
899 948
899 957
899 960
899 962
899 970
899 972
899 973
899 978
899 981
899 982
899 987
899 988
899 992
899 995
899 996
899 997
899 998
861 14
861 15
861 17
861 25
861 29
861 45
861 48
861 49
861 52
861 55
861 58
861 65
861 75
861 84
861 86
861 88
861 91
861 95
861 103
861 110
861 116
861 118
861 119
861 123
861 132
861 141
861 148
861 150
861 151
861 155
861 156
861 172
861 173
861 174
861 178
861 179
861 182
861 187
861 196
861 200
861 207
861 214
861 217
861 223
861 225
861 230
861 233
861 234
861 238
861 241
861 257
861 269
861 270
861 276
861 279
861 280
861 281
861 286
861 289
861 290
861 294
861 299
861 300
861 314
861 326
861 327
861 333
861 340
861 343
861 349
861 350
861 351
861 352
861 359
861 360
861 366
861 367
861 373
861 381
861 391
861 400
861 411
861 414
861 417
861 419
861 420
861 428
861 436
861 438
861 448
861 450
861 451
861 455
861 456
861 461
861 465
861 466
861 468
861 473
861 474
861 476
861 478
861 490
861 499
861 500
861 507
861 508
861 510
861 514
861 521
861 549
861 551
861 553
861 555
861 557
861 558
861 569
861 574
861 579
861 598
861 600
861 606
861 622
861 623
861 624
861 627
861 637
861 638
861 643
861 650
861 654
861 655
861 659
861 660
861 666
861 669
861 670
861 680
861 681
861 683
861 685
861 690
861 693
861 704
861 705
861 707
861 713
861 716
861 721
861 722
861 727
861 729
861 730
861 735
861 736
861 749
861 752
861 756
861 757
861 767
861 770
861 778
861 781
861 790
861 797
861 799
861 804
861 813
861 830
861 831
861 836
861 840
861 842
861 855
861 856
861 861
861 863
861 865
861 871
861 884
861 886
861 894
861 900
861 904
861 913
861 915
861 916
861 919
861 922
861 923
861 926
861 927
861 930
861 933
861 934
861 935
861 950
861 965
861 970
861 973
861 975
861 979
861 984
861 996
861 1000
